objective value:                                 -243
t_x37                                               1 	(obj:-100)
t_x91                                               1 	(obj:-100)
t_x241                                              1 	(obj:-100)
t_y91_118                                           1 	(obj:1)
t_y21_37                                            1 	(obj:1)
t_y91_245                                           1 	(obj:1)
t_y79_91                                            1 	(obj:1)
t_y91_190                                           1 	(obj:1)
t_y65_91                                            1 	(obj:1)
t_y141_241                                          1 	(obj:1)
t_y132_241                                          1 	(obj:1)
t_y47_91                                            1 	(obj:1)
t_y94_241                                           1 	(obj:1)
t_y91_170                                           1 	(obj:1)
t_y220_241                                          1 	(obj:1)
t_y37_219                                           1 	(obj:1)
t_y53_241                                           1 	(obj:1)
t_y38_241                                           1 	(obj:1)
t_y37_142                                           1 	(obj:1)
t_y91_256                                           1 	(obj:1)
t_y37_183                                           1 	(obj:1)
t_y5_37                                             1 	(obj:1)
t_y91_187                                           1 	(obj:1)
t_y91_156                                           1 	(obj:1)
t_y91_227                                           1 	(obj:1)
t_y76_91                                            1 	(obj:1)
t_y48_241                                           1 	(obj:1)
t_y239_241                                          1 	(obj:1)
t_y37_70                                            1 	(obj:1)
t_y37_208                                           1 	(obj:1)
t_y91_186                                           1 	(obj:1)
t_y236_241                                          1 	(obj:1)
t_y37_113                                           1 	(obj:1)
t_y91_134                                           1 	(obj:1)
t_y91_159                                           1 	(obj:1)
t_y37_145                                           1 	(obj:1)
t_y72_241                                           1 	(obj:1)
t_y102_241                                          1 	(obj:1)
t_y119_241                                          1 	(obj:1)
t_y21_241                                           1 	(obj:1)
t_y135_241                                          1 	(obj:1)
t_y78_241                                           1 	(obj:1)
t_y37_144                                           1 	(obj:1)
t_y1_91                                             1 	(obj:1)
t_y85_91                                            1 	(obj:1)
t_y91_193                                           1 	(obj:1)
t_y91_169                                           1 	(obj:1)
t_y37_77                                            1 	(obj:1)
t_y224_241                                          1 	(obj:1)
t_y13_241                                           1 	(obj:1)
t_y37_251                                           1 	(obj:1)
t_y171_241                                          1 	(obj:1)
t_y37_159                                           1 	(obj:1)
t_y44_241                                           1 	(obj:1)
t_y230_241                                          1 	(obj:1)
t_y91_217                                           1 	(obj:1)
t_y37_174                                           1 	(obj:1)
t_y32_241                                           1 	(obj:1)
t_y39_91                                            1 	(obj:1)
t_y91_113                                           1 	(obj:1)
